NAME : MM37_depots
COMMENT : Instance 37 in MD algorithm. Coordinates of depots and vhcl speeds given.
TYPE : TSP
DIMENSION : 15
EDGE_WEIGHT_TYPE : ATT
NODE_COORD_SECTION
351 0.0139 4.2229 1
352 0.0139 4.2229 1
353 0.0139 4.2229 1
354 52.8695 0.4531 1
355 52.8695 0.4531 1
356 52.8695 0.4531 1
357 3.7563 0.0022 1
358 3.7563 0.0022 1
359 3.7563 0.0022 1
360 1.1959 87.1996 1
361 1.1959 87.1996 1
362 1.1959 87.1996 1
363 55.6227 31.4835 1
364 55.6227 31.4835 1
365 55.6227 31.4835 1
EOF
